c Generated map
c Size: 8 * 8, weights in range: 1 to 10, walls: True, with ratio 0.1
c dim 2 of 9
c
p sp 64 90
c graph contains 64 nodes and 90 arcs
c
a 1 9 3
a 9 1 3
a 1 2 5
a 2 1 5
a 2 10 10
a 10 2 10
a 2 3 5
a 3 2 5
a 3 11 9
a 11 3 9
a 5 6 6
a 6 5 6
a 6 14 7
a 14 6 7
a 6 7 6
a 7 6 6
a 7 15 6
a 15 7 6
a 7 8 2
a 8 7 2
a 8 16 7
a 16 8 7
a 9 17 8
a 17 9 8
a 9 10 9
a 10 9 9
a 10 18 4
a 18 10 4
a 10 11 5
a 11 10 5
a 11 12 4
a 12 11 4
a 12 20 5
a 20 12 5
a 14 22 5
a 22 14 5
a 14 15 8
a 15 14 8
a 15 23 9
a 23 15 9
a 15 16 7
a 16 15 7
a 16 24 1
a 24 16 1
a 17 18 7
a 18 17 7
a 18 26 1
a 26 18 1
a 20 28 3
a 28 20 3
a 20 21 3
a 21 20 3
a 21 29 5
a 29 21 5
a 21 22 8
a 22 21 8
a 22 30 5
a 30 22 5
a 22 23 3
a 23 22 3
a 23 31 8
a 31 23 8
a 23 24 3
a 24 23 3
a 24 32 10
a 32 24 10
a 26 34 9
a 34 26 9
a 26 27 1
a 27 26 1
a 27 35 8
a 35 27 8
a 27 28 8
a 28 27 8
a 28 36 9
a 36 28 9
a 28 29 3
a 29 28 3
a 29 37 4
a 37 29 4
a 29 30 5
a 30 29 5
a 30 38 7
a 38 30 7
a 30 31 7
a 31 30 7
a 31 39 5
a 39 31 5
a 31 32 4
a 32 31 4
a 32 40 6
a 40 32 6
a 33 41 9
a 41 33 9
a 33 34 7
a 34 33 7
a 34 42 10
a 42 34 10
a 34 35 9
a 35 34 9
a 35 43 10
a 43 35 10
a 35 36 1
a 36 35 1
a 36 44 6
a 44 36 6
a 36 37 3
a 37 36 3
a 37 45 9
a 45 37 9
a 37 38 7
a 38 37 7
a 38 46 5
a 46 38 5
a 38 39 1
a 39 38 1
a 39 40 9
a 40 39 9
a 40 48 2
a 48 40 2
a 41 49 6
a 49 41 6
a 41 42 5
a 42 41 5
a 42 50 1
a 50 42 1
a 42 43 7
a 43 42 7
a 43 51 7
a 51 43 7
a 43 44 10
a 44 43 10
a 44 45 6
a 45 44 6
a 45 53 9
a 53 45 9
a 45 46 10
a 46 45 10
a 46 54 3
a 54 46 3
a 48 56 5
a 56 48 5
a 49 57 3
a 57 49 3
a 49 50 4
a 50 49 4
a 50 58 1
a 58 50 1
a 50 51 2
a 51 50 2
a 51 59 5
a 59 51 5
a 53 61 1
a 61 53 1
a 53 54 9
a 54 53 9
a 54 62 8
a 62 54 8
a 54 55 10
a 55 54 10
a 55 63 6
a 63 55 6
a 55 56 7
a 56 55 7
a 56 64 8
a 64 56 8
a 57 58 6
a 58 57 6
a 58 59 7
a 59 58 7
a 59 60 6
a 60 59 6
a 60 61 4
a 61 60 4
a 61 62 10
a 62 61 10
a 62 63 5
a 63 62 5
a 63 64 9
a 64 63 9
